NAME: random-18-3561
TYPE: TSP
COMMENT: size=18 seed=3561
DIMENSION: 38
EDGE_WEIGHT_TYPE: EUC_2D
NODE_COORD_SECTION
+0 727 893
-0 727 893
+1 371 579
-1 135 759
+2 357 533
-2 685 262
+3 539 981
-3 777 941
+4 764 500
-4 85 346
+5 541 894
-5 990 566
+6 749 641
-6 970 742
+7 569 23
-7 490 428
+8 934 444
-8 623 417
+9 175 218
-9 556 481
+10 774 786
-10 742 242
+11 45 19
-11 805 1
+12 597 839
-12 898 286
+13 826 818
-13 235 866
+14 960 144
-14 991 478
+15 55 614
-15 803 472
+16 450 460
-16 388 907
+17 930 899
-17 577 892
+18 293 955
-18 23 163
PRECEDENCE_SECTION
+0 -0
+1 -1
+2 -2
+3 -3
+4 -4
+5 -5
+6 -6
+7 -7
+8 -8
+9 -9
+10 -10
+11 -11
+12 -12
+13 -13
+14 -14
+15 -15
+16 -16
+17 -17
+18 -18
EOF
